23624 22858 100 99 97 96 95 94 93 92 91 90 89 88 87 86 83 82 81 80 79 78 77 76 75 74 73 71 70 69 67 66 65 64 63 61 60 58 57 56 55 53 52 50 49 48 47 46 45 44 43 42 41 40 39 36 34 33 31 30 28 27 25 24 23 20 19 15 14 13 12 10 9 8 7 6 5 4 3 2 